1440
500000
332065
332065
332065
332065
331207
331207
331207
331207
331207
331207
331207
331207
331207
331207
331207
331207
331207
331207
331207
331207
331207
331207
331207
331207
330382
330382
330382
330382
330382
330382
330382
330382
330382
330382
330382
330382
330382
330382
330382
330382
330382
330382
330382
325753
325753
325753
325753
325753
325753
325753
325753
325753
325374
325374
325374
325374
325374
325374
323690
323690
323690
323690
323690
323690
323690
323690
323690
323690
323690
323690
323690
323690
323690
323690
323690
323690
323690
323436
323436
323436
323436
323436
323436
323436
315824
315824
315824
315824
315824
315824
311683
311683
311683
311683
311683
311683
311683
311683
311683
311683
307867
307867
307867
307867
307867
307867
307867
307867
307867
307867
307867
307867
307867
307867
307867
307867
307867
302652
302652
302652
302652
302652
302652
302652
301844
301022
301022
301022
301022
301022
301022
301022
301022
301022
301022
301022
301022
301022
301022
301022
301022
301022
298988
298988
298988
298988
298988
298988
298988
298988
298988
298988
298988
298988
298988
298988
298988
298988
298988
298988
298988
298528
298528
298528
298528
298528
298528
298528
298528
298528
298528
290989
290989
290989
290989
290989
290989
290989
290989
290989
290989
290989
290989
290989
290989
290989
288611
288611
288611
288611
288611
288611
288611
288611
288611
288611
288611
288611
288611
288611
288611
288611
288272
288272
288272
288272
288272
288272
288272
288272
288272
288272
288272
288272
288272
287439
287439
287439
287439
287439
287439
287439
287439
287439
287439
287439
287439
287439
287439
287439
287439
286138
286138
286138
286138
286138
286138
286138
286138
286138
286138
286138
286138
286138
286138
286138
286138
286138
286138
284858
284858
283197
283197
283197
283197
283197
283197
283197
283197
283197
283197
283197
283197
283197
283197
283197
282739
282739
282739
282739
282739
282739
282739
282739
282739
282739
282011
282011
282011
282011
282011
282011
282011
282011
282011
282011
282011
282011
282011
282011
282011
282011
282011
282011
282011
282011
280238
280238
280238
280238
280238
280238
280238
280238
280238
280238
280238
280238
280238
280238
280238
276089
276089
276089
276089
276089
276089
276089
276089
276089
276089
276089
276089
276089
276089
276089
271558
271558
271558
271558
271558
271558
271558
271558
271558
271558
271558
271558
271558
271558
271558
271558
271558
271558
271434
271434
271434
271434
270322
270322
270322
270322
270322
270322
270322
270322
270322
270322
270322
270322
270322
268224
268224
268224
268224
268224
268224
268224
268224
268224
268224
266752
266752
266752
266752
266752
264609
264609
264609
264609
264609
264609
264609
264609
264609
264609
264609
264609
264609
264609
264609
264609
264609
264609
263076
263076
263076
263076
263076
263076
263076
263076
263076
263076
263076
263076
263076
263076
263076
262371
262371
262371
262371
262371
262371
262371
262371
262371
262371
262371
262371
262371
262371
262371
262371
262371
262371
262096
262096
262096
262096
262096
262096
262096
262096
261884
261884
261884
261884
261884
261884
261884
261884
261884
261884
261884
261884
261884
261884
261884
261884
261884
261884
261884
261884
258358
258358
258358
258358
258358
258358
258358
258358
258358
258358
258358
252631
252631
252631
252631
252631
252631
252631
252631
252631
252631
252631
252631
252631
252631
252617
252617
252617
252617
252617
252617
252617
252617
245313
245313
245313
245313
245313
245313
245313
242488
242488
242488
242488
242488
242488
242488
242488
242488
242488
242488
242488
242488
242488
242488
241261
241261
241261
241261
241261
241261
241261
241257
241257
241257
241257
241257
241257
241257
241257
241257
241257
241257
241257
241257
238954
238954
238954
238954
238954
238954
238181
238181
238181
238181
238181
238181
238181
238181
238181
238181
238181
238181
238181
238181
238181
237197
237197
237197
237197
237197
237197
237197
237197
237197
237197
237197
237197
237197
237197
237197
235994
235994
235994
235457
235457
235457
235457
235457
235457
235457
235457
235457
235457
235457
235457
235457
235457
235457
235457
235457
235457
235457
232110
232110
230452
230452
230452
230452
230452
230452
230452
230452
230452
230452
230452
230452
230452
230452
230452
230452
230452
228050
228050
228050
228050
228050
228050
228050
228050
228050
228050
228050
228050
228050
228050
228050
227848
227848
227848
227848
227848
227848
227848
227848
227848
227848
227848
227848
225490
225490
225490
225490
225490
225490
225490
225459
225459
225459
225459
225459
225459
225459
225138
225138
221777
221777
221777
221777
221777
221777
221777
221777
221777
221777
221777
221777
221777
221777
221218
221218
221218
221218
221218
217057
217057
217057
217057
217057
216415
216415
216415
216415
216415
216415
216415
216415
216415
216415
216415
216198
216198
216198
216198
216198
216198
216198
216198
216198
216198
216198
216198
216198
216198
216198
216198
216198
216198
216198
216198
214109
214109
214109
214109
214109
214109
214109
214109
214109
214109
214109
214109
214109
214109
214109
214109
203258
203258
203258
203258
203258
203258
203258
203258
203258
203258
203258
203258
203258
203258
203258
203258
203258
203258
202532
202532
202532
202532
202532
202532
202532
202532
202532
202532
202532
202532
202532
201027
201027
201027
201027
201027
201027
201027
201027
201027
201027
201027
201027
201027
199491
199491
199491
199491
199491
199491
197590
197590
197590
197590
197590
197590
197156
197156
197156
197156
197156
197156
197156
197156
197156
197156
197156
197156
195411
195411
195411
195411
195411
195411
195411
193049
193049
193049
193049
193049
193049
193049
193049
193049
193049
193049
193049
193049
193049
193049
193049
193049
188971
188971
188971
188971
188920
188920
188920
188920
188920
188920
188920
188920
188920
188920
188920
188920
188920
188920
188920
188920
188920
188920
188920
188920
188876
188876
188876
188876
188876
188876
182909
182909
182909
182909
182909
182909
182909
182909
182909
182909
182909
182909
182909
182909
182909
182909
182909
179254
179254
179254
179254
179254
179254
179254
179254
179254
179254
179254
179208
179208
179208
179208
179208
179208
179208
179208
179208
179208
179208
179208
179208
179208
179208
179208
179208
179208
179208
179208
176627
176627
176627
176627
175288
175288
175288
175288
175288
171150
171150
171150
171150
171150
171150
171150
171150
169535
169535
166913
166913
166913
166913
166913
166913
166913
166913
166913
166913
166913
166913
166913
166913
165174
165174
165174
165174
165174
165174
165174
165174
165174
165174
165174
165174
165174
165174
165174
165174
156111
156111
156111
156111
156111
156111
156111
156111
156111
156111
156111
156111
156111
156111
155827
155827
155827
155827
155827
155827
155827
155827
155827
155827
155827
155827
155827
155827
155827
155827
155827
155827
155827
147894
147894
147894
147894
147894
147894
147894
147894
147894
147894
147894
147741
147741
147741
147741
147741
147741
147741
147741
147741
147741
147741
147741
147741
147726
147726
147726
147726
147726
147726
141177
141177
141177
141177
141177
141177
141177
141177
141177
141177
141177
141177
141177
140714
140714
140714
140714
140714
140714
140714
140714
140232
140232
140232
140232
140232
140232
140232
140232
140232
139384
139384
139384
139384
139384
139384
139384
139384
139384
139384
139384
139384
139384
139384
139384
139384
139384
139384
136045
136045
136045
136045
136045
136045
136045
136045
136045
136045
136045
135211
135211
135211
135211
135211
135211
135211
135211
135211
135211
135211
135211
135211
135211
135211
135211
133850
133850
133850
133850
133850
133850
133850
133850
133850
133850
133850
133850
133850
133850
133850
133850
133850
132442
132442
132442
132442
132442
131323
131323
131323
131323
131323
131323
131323
131323
131323
131323
131323
131323
131323
131323
131323
131323
131323
131323
131323
130323
127857
127857
127857
127857
127857
127857
127857
127857
127857
127857
127857
127857
127857
127390
127390
127390
127390
127390
127390
127390
127390
127390
127390
127390
127390
127390
127390
127390
127390
127390
127390
127390
127309
127309
127309
127309
127309
127309
127309
127309
127309
127309
127309
127309
127309
127309
127309
127309
127309
127309
119314
119314
119314
119314
119314
119314
119314
119314
119314
119314
119314
119314
119314
119314
119314
119314
119314
119314
117544
117544
117544
117544
117544
117544
117544
117544
117544
117544
117544
117544
117544
117544
117544
117544
117544
117544
117544
117544
116464
116464
116464
116464
116464
115909
115909
115909
115909
115909
115909
115909
115909
115909
115909
115909
115909
115909
115909
115909
115909
115909
115909
115909
115867
115867
115867
115867
115867
115867
115809
115809
115809
115445
115445
115445
115445
115445
115445
115445
109057
109057
109057
109057
109057
109057
109057
109057
109057
109057
109057
109057
109057
109057
109057
109012
109012
109012
109012
109012
109012
109012
109012
109012
109012
109012
109012
109012
109012
109012
109012
109012
109012
106919
106919
106919
106919
106919
106919
106919
106919
106919
106919
106919
106919
106919
106919
106919
106919
106919
106919
106919
106919
102079
102079
102079
102079
102079
101141
101141
101141
101141
101141
101141
101141
101141
101141
101141
101141
101141
101141
101141
100233
100233
100233
100233
100233
100233
100233
100233
90940
90940
90940
90940
90940
90940
90940
90940
90940
90940
90940
90940
90940
90940
90940
90940
88770
88770
88770
88770
87972
87972
87972
87972
87972
87972
87972
87972
87972
87972
87972
87972
87972
87972
87972
87972
84959
84959
84959
84959
84959
84959
84959
84959
84959
84959
84959
84959
84959
84959
84959
84959
82998
82998
82998
82998
82998
82998
82998
82998
82998
82228
82228
82228
82228
79599
77236
77236
77236
77236
77236
77236
77236
77236
77236
77236
77236
77236
77236
76866
75112
75112
75112
75112
75112
75112
75112
75112
75112
75112
74752
71496
71496
71496
71496
71496
71496
71496
71496
71496
71496
71496
71496
71496
71496
71496
71496
71496
71496
68754
68754
68754
